20
2 0 316
3 0 273
4 2 169
5 1 212
5 2 283
5 4 37
6 1 171
6 2 177
6 4 273
6 5 198
7 2 176
7 3 118
8 2 316
8 3 276
8 4 128
9 1 93
9 4 109
9 8 241
10 2 220
10 5 87
10 6 121
11 0 252
11 4 82
11 6 284
11 7 277
12 2 32
12 4 37
12 8 122
12 10 49
13 0 22
13 1 316
13 2 272
13 5 116
13 7 189
13 9 272
13 12 76
14 2 131
14 3 1
14 5 287
14 6 300
14 7 79
14 8 119
14 11 126
14 12 276
15 2 308
15 6 287
15 10 161
15 13 141
15 14 83
16 0 118
16 3 286
16 5 113
16 7 210
16 8 27
16 13 300
16 15 158
17 0 55
17 4 7
17 8 117
17 9 231
17 12 125
17 13 17
17 14 292
17 15 195
17 16 73
18 1 152
18 10 252
18 11 48
18 12 43
18 13 109
18 14 90
18 17 80
19 4 72
19 6 227
19 7 289
19 8 302
19 11 286
19 12 73
19 13 70
19 16 105
